100
1000
200
0 0
-10 -38
-10 -38
-10 -38
-10 -38
-10 -38
-10 -38
-10 -38
-10 -38
-10 -38
-10 -38
-10 -38
-10 -38
-10 -38
-10 -38
-10 -38
-10 -38
-10 -38
-10 -38
-10 -38
-10 -38
40 35
40 35
40 35
40 35
40 35
40 35
40 35
40 35
40 35
40 35
40 35
40 35
40 35
40 35
40 35
40 35
40 35
40 35
40 35
40 35
-40 -13
-40 -13
-40 -13
-40 -13
-40 -13
-40 -13
-40 -13
-40 -13
-40 -13
-40 -13
-40 -13
-40 -13
-40 -13
-40 -13
-40 -13
-40 -13
-40 -13
-40 -13
-40 -13
-40 -13
-29 20
-29 20
-29 20
-29 20
-29 20
-29 20
-29 20
-29 20
-29 20
-29 20
-29 20
-29 20
-29 20
-29 20
-29 20
-29 20
-29 20
-29 20
-29 20
-29 20
-13 -10
-13 -10
-13 -10
-13 -10
-13 -10
-13 -10
-13 -10
-13 -10
-13 -10
-13 -10
-13 -10
-13 -10
-13 -10
-13 -10
-13 -10
-13 -10
-13 -10
-13 -10
-13 -10
-13 -10
18 -29
-30 36
-13 -7
30 -2
-36 18
-21 30
40 -9
8 10
11 -38
-17 -6
-5 40
-21 35
14 -10
14 13
-5 37
-13 18
27 -35
-33 8
-3 36
1 -35
18 -29
-30 36
-13 -7
30 -2
-36 18
-21 30
40 -9
8 10
11 -38
-17 -6
-5 40
-21 35
14 -10
14 13
-5 37
-13 18
27 -35
-33 8
-3 36
1 -35
18 -29
-30 36
-13 -7
30 -2
-36 18
-21 30
40 -9
8 10
11 -38
-17 -6
-5 40
-21 35
14 -10
14 13
-5 37
-13 18
27 -35
-33 8
-3 36
1 -35
18 -29
-30 36
-13 -7
30 -2
-36 18
-21 30
40 -9
8 10
11 -38
-17 -6
-5 40
-21 35
14 -10
14 13
-5 37
-13 18
27 -35
-33 8
-3 36
1 -35
18 -29
-30 36
-13 -7
30 -2
-36 18
-21 30
40 -9
8 10
11 -38
-17 -6
-5 40
-21 35
14 -10
14 13
-5 37
-13 18
27 -35
-33 8
-3 36
1 -35
0 0 
53
54
55
59
59
59
53
57
52
53
56
52
56
54
54
55
51
55
54
52
59
56
52
53
56
60
52
59
54
57
60
53
56
54
56
55
56
56
54
54
56
59
56
60
57
56
55
56
60
53
54
55
53
56
54
53
53
52
54
57
52
52
60
53
54
57
51
56
56
56
59
55
54
57
56
55
55
53
56
55
51
54
55
56
53
52
52
53
56
52
53
53
57
57
56
56
60
53
56
54
53
54
55
59
59
59
53
57
52
53
56
52
56
54
54
55
51
55
54
52
59
56
52
53
56
60
52
59
54
57
60
53
56
54
56
55
56
56
54
54
56
59
56
60
57
56
55
56
60
53
54
55
53
56
54
53
53
52
54
57
52
52
60
53
54
57
51
56
56
56
59
55
54
57
56
55
55
53
56
55
51
54
55
56
53
52
52
53
56
52
53
53
57
57
56
56
60
53
56
54
